3	25	1	8	29	100	0	0	0	0	0	0
800	1	0	0	0	0	0	0	0	0	0	0
800	1	0	0	0	0	0	0	0	0	0	0
800	1	0	0	0	0	0	0	0	0	0	0
100	1	0	79.69	3.39	1	0	0	0	0	0	0
100	1	0	79.69	3.39	1	0	0	0	0	0	0
100	1	0	79.69	3.39	1	0	0	0	0	0	0
100	1	0	79.69	3.39	1	0	0	0	0	0	0
100	1	0	79.69	3.39	1	0	0	0	0	0	0
100	1	0	79.69	3.39	1	0	0	0	0	0	0
100	1	0	79.69	3.39	1	0	0	0	0	0	0
100	1	0	79.69	3.39	1	0	0	0	0	0	0
100	1	0	79.69	3.39	1	0	0	0	0	0	0
100	1	0	79.69	3.39	1	0	0	0	0	0	0
100	1	0	79.69	3.39	1	0	0	0	0	0	0
100	1	0	79.69	3.39	1	0	0	0	0	0	0
100	1	0	79.69	3.39	1	0	0	0	0	0	0
100	1	0	79.69	3.39	1	0	0	0	0	0	0
100	1	0	79.69	3.39	1	0	0	0	0	0	0
100	1	0	79.69	3.39	1	0	0	0	0	0	0
100	1	0	79.69	3.39	1	0	0	0	0	0	0
100	1	0	79.69	3.39	1	0	0	0	0	0	0
100	1	0	79.69	3.39	1	0	0	0	0	0	0
100	1	0	79.69	3.39	1	0	0	0	0	0	0
100	1	0	79.69	3.39	1	0	0	0	0	0	0
100	1	0	79.69	3.39	1	0	0	0	0	0	0
100	1	0	79.69	3.39	1	0	0	0	0	0	0
100	1	0	79.69	3.39	1	0	0	0	0	0	0
100	1	0	79.69	3.39	1	0	0	0	0	0	0
50	150	0	0	0	0	1236	0	0	99999	0	0
25	25	0	0	0	0	1236	0	0	99999	0	0
50	25	0	0	0	0	1236	0	0	99999	0	0
75	25	0	0	0	0	1236	0	0	99999	0	0
25	50	0	0	0	0	1236	0	0	99999	0	0
75	50	0	0	0	0	1236	0	0	99999	0	0
25	75	0	0	0	0	1236	0	0	99999	0	0
50	75	0	0	0	0	1236	0	0	99999	0	0
75	75	0	0	0	0	1236	0	0	99999	0	0
25	25	0	0	0	0	1236	0	0	0	0	0
50	25	0	0	0	0	1236	0	0	0	0	0
75	25	0	0	0	0	1236	0	0	0	0	0
25	50	0	0	0	0	1236	0	0	0	0	0
75	50	0	0	0	0	1236	0	0	0	0	0
25	75	0	0	0	0	1236	0	0	0	0	0
50	75	0	0	0	0	1236	0	0	0	0	0
75	75	0	0	0	0	1236	0	0	0	0	0
40      50      0       0       0       0       1236    0       0       0       0       0
73      52      0       0       0       0       1236    0       0       0       0       0
90      55      0       0       0       0       1236    0       0       0       0       0
55      79      0       0       0       0       1236    0       0       0       0       0
69      89      0       0       0       0       1236    0       0       0       0       0
32      80      0       0       0       0       1236    0       0       0       0       0
39      96      0       0       0       0       1236    0       0       0       0       0
23      80      0       0       0       0       1236    0       0       0       0       0
4	83	0	0	0	0	1236	0	0	0	0	0
18	58	0	0	0	0	1236	0	0	0	0	0
1	56	0	0	0	0	1236	0	0	0	0	0
13	31	0	0	0	0	1236	0	0	0	0	0
-5	38	0	0	0	0	1236	0	0	0	0	0
26	37	0	0	0	0	1236	0	0	0	0	0
28	13	0	0	0	0	1236	0	0	0	0	0
39	31	0	0	0	0	1236	0	0	0	0	0
48	11	0	0	0	0	1236	0	0	0	0	0
59	17	0	0	0	0	1236	0	0	0	0	0
73	23	0	0	0	0	1236	0	0	0	0	0
74	32	0	0	0	0	1236	0	0	0	0	0
90	44	0	0	0	0	1236	0	0	0	0	0
45	68	10	7	3	179	241	90	0	0	0	0
45	70	30	19	11	600	654	90	0	0	0	0
42	66	10	6	4	964	1032	90	0	0	0	0
42	68	10	6	4	685	757	90	0	0	0	0
42	65	10	6	4	1051	1127	90	0	0	0	0
40	69	20	12	8	784	842	90	0	0	0	0
40	66	20	12	8	875	937	90	0	0	0	0
38	68	20	11	9	1158	1226	90	0	0	0	0
38	70	10	5	5	1059	1141	90	0	0	0	0
35	66	10	5	5	880	946	90	0	0	0	0
35	69	10	5	5	970	1042	90	0	0	0	0
25	85	20	6	14	277	329	90	0	0	0	0
22	75	30	9	21	1143	1207	90	0	0	0	0
22	85	10	3	7	364	428	90	0	0	0	0
20	80	40	10	30	846	890	90	0	0	0	0
20	85	40	9	31	459	517	90	0	0	0	0
18	75	20	5	15	734	812	90	0	0	0	0
15	75	20	4	16	658	702	90	0	0	0	0
15	80	10	2	8	556	614	90	0	0	0	0
30	50	10	6	4	111	171	90	0	0	0	0
30	52	20	12	8	112	174	90	0	0	0	0
28	52	20	11	9	174	232	90	0	0	0	0
28	55	10	5	5	114	171	90	0	0	0	0
25	50	10	5	5	173	239	90	0	0	0	0
25	52	40	19	21	259	333	90	0	0	0	0
25	55	10	5	5	773	845	90	0	0	0	0
23	52	10	4	6	364	412	90	0	0	0	0
23	55	20	8	12	539	611	90	0	0	0	0
20	50	10	4	6	275	327	90	0	0	0	0
20	55	10	4	6	456	508	90	0	0	0	0
10	35	20	6	14	568	618	90	0	0	0	0
10	40	30	8	22	372	438	90	0	0	0	0
8	40	40	8	32	456	538	90	0	0	0	0
8	45	20	4	16	295	345	90	0	0	0	0
5	35	10	1	9	756	826	90	0	0	0	0
5	45	10	1	9	379	447	90	0	0	0	0
2	40	20	1	19	670	720	90	0	0	0	0
0	40	30	0	30	573	633	90	0	0	0	0
0	45	20	0	20	475	541	90	0	0	0	0
35	30	10	9	1	244	300	90	0	0	0	0
35	32	10	9	1	150	210	90	0	0	0	0
33	32	20	19	1	340	390	90	0	0	0	0
33	35	10	9	1	890	950	90	0	0	0	0
32	30	10	9	1	426	488	90	0	0	0	0
30	30	10	10	0	522	576	90	0	0	0	0
30	32	30	28	2	702	766	90	0	0	0	0
30	35	10	9	1	799	855	90	0	0	0	0
28	30	10	9	1	612	670	90	0	0	0	0
28	35	10	8	2	1112	1174	90	0	0	0	0
26	32	10	8	2	1024	1076	90	0	0	0	0
25	30	10	8	2	924	990	90	0	0	0	0
25	35	10	7	3	1143	1203	90	0	0	0	0
44	5	20	2	18	538	612	90	0	0	0	0
42	10	40	10	30	911	969	90	0	0	0	0
42	15	10	4	6	1006	1064	90	0	0	0	0
40	5	30	4	26	451	511	90	0	0	0	0
40	15	40	15	25	1090	1164	90	0	0	0	0
38	5	30	4	26	357	421	90	0	0	0	0
38	15	10	4	6	167	225	90	0	0	0	0
35	5	20	3	17	268	324	90	0	0	0	0
50	30	10	6	4	1081	1165	90	0	0	0	0
50	35	20	14	6	270	330	90	0	0	0	0
50	40	50	40	10	116	186	90	0	0	0	0
48	30	10	6	4	364	426	90	0	0	0	0
48	40	10	8	2	168	240	90	0	0	0	0
47	35	10	7	3	1169	1230	90	0	0	0	0
47	40	10	9	1	114	189	90	0	0	0	0
45	30	10	7	3	455	521	90	0	0	0	0
45	35	10	8	2	549	617	90	0	0	0	0
95	30	30	9	21	491	545	90	0	0	0	0
95	35	20	7	13	582	644	90	0	0	0	0
53	30	10	6	4	1005	1055	90	0	0	0	0
92	30	10	3	7	388	462	90	0	0	0	0
53	35	50	33	17	179	243	90	0	0	0	0
45	65	20	14	6	117	192	90	0	0	0	0
90	35	10	4	6	676	740	90	0	0	0	0
88	30	10	3	7	635	701	90	0	0	0	0
88	35	20	8	12	768	832	90	0	0	0	0
87	30	10	3	7	547	607	90	0	0	0	0
85	25	10	3	7	738	790	90	0	0	0	0
85	35	30	12	18	862	924	90	0	0	0	0
75	55	20	15	5	560	630	90	0	0	0	0
72	55	10	8	2	657	719	90	0	0	0	0
70	58	20	17	3	751	811	90	0	0	0	0
68	60	30	26	4	838	910	90	0	0	0	0
66	55	10	8	2	274	342	90	0	0	0	0
65	55	20	17	3	188	246	90	0	0	0	0
65	60	30	28	2	938	996	90	0	0	0	0
63	58	10	9	1	1030	1090	90	0	0	0	0
60	55	10	9	1	122	185	90	0	0	0	0
60	60	10	10	0	1111	1197	90	0	0	0	0
67	85	20	16	4	560	620	90	0	0	0	0
65	85	40	31	9	647	717	90	0	0	0	0
65	82	10	8	2	468	524	90	0	0	0	0
62	80	30	23	7	375	431	90	0	0	0	0
60	80	10	8	2	278	344	90	0	0	0	0
60	85	30	21	9	746	808	90	0	0	0	0
58	75	20	15	5	282	348	90	0	0	0	0
55	80	10	7	3	937	997	90	0	0	0	0
55	85	20	13	7	845	899	90	0	0	0	0

